(set-info :smt-lib-version 2.6)
(set-logic QF_NRA)
(set-info :source |
Generated by: Anastasiia Izycheva, Eva Darulova
Generated on: 2020-09-11
Generator: Pine (using Z3 Python API)
Application: Check inductiveness of a loop invariant
Target solver: Z3

These benchmarks were generated while developing the tool Pine [1], which uses
CVC4/Z3 to check inductiveness of invariants. The work is described in [2].

[1] https://github.com/izycheva/pine
[2] A.Izycheva, E.Darulova, H.Seidl, SAS'20, "Counterexample- and Simulation-Guided Floating-Point Loop Invariant Synthesis"

 Loop:
   u' := u + 0.01 * v
   v' := v + 0.01 * (-0.5 * v - 9.81 * (u - (u*u*u)/6.0 + (u*u*u*u*u)/120.0))

 Input ranges:
   u in [0.0,0.0]
   v in [2.0,3.0]

 Invariant:
   -0.17*u + -0.02*v + 1.0*u^2 + 0.03*u*v + 0.1*v^2 <= 0.89
 and
   u in [-0.9,1.1]
   v in [-2.9,3.0]

 Query: Loop and Invariant and not Invariant'
|)
(set-info :license "https://creativecommons.org/licenses/by/4.0/")
(set-info :category "industrial")
(set-info :status unknown)
(declare-fun u! () Real)
(declare-fun v! () Real)
(declare-fun u () Real)
(declare-fun v () Real)
(assert
 (let ((?x99 (+ (* (* (/ 3.0 100.0) u!) v!) (+ (* (* (/ 1.0 10.0) v!) v!) (* (- (/ 17.0 100.0)) u!)))))
 (let (($x78 (and (<= (- (/ 9.0 10.0)) u!) (>= (/ 11.0 10.0) u!) (<= (- (/ 29.0 10.0)) v!) (>= 3.0 v!))))
 (let (($x79 (and $x78 (>= (/ 89.0 100.0) (+ (* (- (/ 1.0 50.0)) v!) (+ (* (* 1.0 u!) u!) ?x99))) )))
 (let ((?x60 (+ (- u (/ (* (* u u) u) 6.0)) (/ (* (* (* (* u u) u) u) u) 120.0))))
 (let (($x106 (and (= u! (+ u (* (/ 1.0 100.0) v))) (= v! (+ v (* (/ 1.0 100.0) (- (* (- (/ 1.0 2.0)) v) (* (/ 981.0 100.0) ?x60))))))))
 (let ((?x27 (+ (* (* (/ 3.0 100.0) u) v) (+ (* (* (/ 1.0 10.0) v) v) (* (- (/ 17.0 100.0)) u)))))
 (let ((?x330 (* (- (/ 1.0 50.0)) v)))
 (let (($x340 (>= 3.0 v)))
 (let (($x26 (and (and (<= (- (/ 9.0 10.0)) u) (>= (/ 11.0 10.0) u) (<= (- (/ 29.0 10.0)) v) $x340) (>= (/ 89.0 100.0) (+ ?x330 (+ (* (* 1.0 u) u) ?x27))) )))
 (and $x26 $x106 (not $x79))))))))))))
(check-sat)
(exit)
